Problem:    
Rows:       14
Columns:    12
Non-zeros:  25
Status:     OPTIMAL
Objective:  64580658.8 (MAXimum)

   No.   Row name   St   Activity     Lower bound   Upper bound    Marginal
------ ------------ -- ------------- ------------- ------------- -------------
     1 r_0          NU       68.5374                     68.5374        100000 
     2 r_1          NU        42.789                      42.789        100000 
     3 r_2          B              0                     1.00322 
     4 r_3          NU      -1.00322                    -1.00322        100000 
     5 r_4          NU       21.2307                     21.2307        100000 
     6 r_5          NS       10.7136       10.7136             =       4.8e+06 
     7 r_6          B              0                      267837 
     8 r_7          NS             0             0             =        100000 
     9 r_8          NS             0             0             =        100000 
    10 r_9          B        10.7136                       377.5 
    11 r_10         B        56.8205                       68.44 
    12 r_11         B         42.789                       44.67 
    13 r_12         B              0                       377.5 
    14 r_13         B        21.2307                      250.97 

   No. Column name  St   Activity     Lower bound   Upper bound    Marginal
------ ------------ -- ------------- ------------- ------------- -------------
     1 r7_z1_d1     B        10.7136             0               
     2 j4_d2        B              0             0               
     3 r5_volGoal   B        56.8205             0               
     4 r6_volGoal   B         42.789             0               
     5 r7_volGoal   NL             0             0                       < eps
     6 r8_volGoal   B        21.2307             0               
     7 r5_z1_j3     B        11.7168             0               
     8 r6_z1_j3     NL             0             0                       < eps
     9 j3_r7        B        11.7168             0               
    10 r7_z1_r8     NL             0             0                       -5000 
    11 r7_s         NL             0             0                    -9.9e+06 
    12 r8_z1_j4     NL             0             0                       -5000 

Karush-Kuhn-Tucker optimality conditions:

KKT.PE: max.abs.err = 1.60e-14 on row 10
        max.rel.err = 7.13e-16 on row 10
        High quality

KKT.PB: max.abs.err = 0.00e+00 on row 0
        max.rel.err = 0.00e+00 on row 0
        High quality

KKT.DE: max.abs.err = 0.00e+00 on column 0
        max.rel.err = 0.00e+00 on column 0
        High quality

KKT.DB: max.abs.err = 0.00e+00 on row 0
        max.rel.err = 0.00e+00 on row 0
        High quality

End of output
